0 0 0 0
0 1 1 0
0 2 0 0
0 3 0 0
0 4 2 1
0 5 1 3
0 6 0 1
0 7 2 4
0 8 0 6
0 9 0 10
0 10 0 1
0 11 2 13
0 12 0 10
0 13 0 10
0 14 0 12
0 15 1 3
0 16 0 12
0 17 2 11
0 18 0 15
0 19 0 14
0 20 0 21
0 21 1 9
0 22 2 11
0 23 0 18
0 24 0 20
0 25 0 15
0 26 0 21
0 27 0 22
0 28 1 17
0 29 0 27
0 30 1 25
0 31 0 29
